\* berth *\
Minimize
OBJ: 490 mid_for_y_0 + 495 mid_for_y_1 + 406 mid_for_y_10 + 594 mid_for_y_11
 + 480 mid_for_y_12 + 455 mid_for_y_13 + 553 mid_for_y_14 + 448 mid_for_y_15
 + 457 mid_for_y_16 + 478 mid_for_y_17 + 411 mid_for_y_18 + 474 mid_for_y_19
 + 505 mid_for_y_2 + 484 mid_for_y_20 + 523 mid_for_y_21 + 540 mid_for_y_22
 + 578 mid_for_y_23 + 534 mid_for_y_24 + 535 mid_for_y_25 + 464 mid_for_y_26
 + 440 mid_for_y_27 + 519 mid_for_y_28 + 411 mid_for_y_29 + 530 mid_for_y_3
 + 493 mid_for_y_30 + 520 mid_for_y_31 + 530 mid_for_y_32 + 453 mid_for_y_33
 + 448 mid_for_y_34 + 579 mid_for_y_35 + 517 mid_for_y_36 + 565 mid_for_y_37
 + 507 mid_for_y_38 + 447 mid_for_y_39 + 551 mid_for_y_4 + 591 mid_for_y_40
 + 546 mid_for_y_41 + 439 mid_for_y_42 + 545 mid_for_y_43 + 471 mid_for_y_44
 + 569 mid_for_y_45 + 400 mid_for_y_46 + 511 mid_for_y_47 + 478 mid_for_y_48
 + 582 mid_for_y_5 + 536 mid_for_y_6 + 503 mid_for_y_7 + 436 mid_for_y_8
 + 519 mid_for_y_9 + 571 mid_x_0 + 436 mid_x_1 + 527 mid_x_10 + 550 mid_x_11
 + 403 mid_x_12 + 444 mid_x_13 + 439 mid_x_14 + 596 mid_x_15 + 526 mid_x_16
 + 488 mid_x_17 + 593 mid_x_18 + 452 mid_x_19 + 406 mid_x_2 + 534 mid_x_20
 + 594 mid_x_21 + 506 mid_x_22 + 534 mid_x_23 + 439 mid_x_24 + 585 mid_x_25
 + 441 mid_x_26 + 429 mid_x_27 + 447 mid_x_28 + 576 mid_x_29 + 541 mid_x_3
 + 499 mid_x_30 + 422 mid_x_31 + 469 mid_x_32 + 424 mid_x_33 + 426 mid_x_34
 + 538 mid_x_35 + 502 mid_x_36 + 527 mid_x_37 + 542 mid_x_38 + 404 mid_x_39
 + 588 mid_x_4 + 414 mid_x_40 + 494 mid_x_41 + 509 mid_x_42 + 427 mid_x_43
 + 540 mid_x_44 + 406 mid_x_45 + 439 mid_x_46 + 486 mid_x_47 + 525 mid_x_48
 + 509 mid_x_5 + 537 mid_x_6 + 470 mid_x_7 + 461 mid_x_8 + 404 mid_x_9
Subject To
_C1: mid_x_0 >= 0
_C10: - mid_x_1 - x_1 <= -1055
_C100: mid_for_y_12 >= 0
_C101: mid_for_y_12 - y_12 >= -17
_C102: x_12 <= 1315
_C103: y_12 >= 17
_C104: x_12 >= 0
_C105: mid_x_13 >= 0
_C106: - mid_x_13 - x_13 <= -768
_C107: mid_x_13 - x_13 >= -768
_C108: mid_for_y_13 >= 0
_C109: mid_for_y_13 - y_13 >= -33
_C11: mid_x_1 - x_1 >= -1055
_C110: x_13 <= 1320
_C111: y_13 >= 33
_C112: x_13 >= 0
_C113: mid_x_14 >= 0
_C114: - mid_x_14 - x_14 <= -810
_C115: mid_x_14 - x_14 >= -810
_C116: mid_for_y_14 >= 0
_C117: mid_for_y_14 - y_14 >= -225
_C118: x_14 <= 1318
_C119: y_14 >= 225
_C12: mid_for_y_1 >= 0
_C120: x_14 >= 0
_C121: mid_x_15 >= 0
_C122: - mid_x_15 - x_15 <= -683
_C123: mid_x_15 - x_15 >= -683
_C124: mid_for_y_15 >= 0
_C125: mid_for_y_15 - y_15 >= -76
_C126: x_15 <= 1330
_C127: y_15 >= 76
_C128: x_15 >= 0
_C129: mid_x_16 >= 0
_C13: mid_for_y_1 - y_1 >= -211
_C130: - mid_x_16 - x_16 <= -614
_C131: mid_x_16 - x_16 >= -614
_C132: mid_for_y_16 >= 0
_C133: mid_for_y_16 - y_16 >= -128
_C134: x_16 <= 1320
_C135: y_16 >= 128
_C136: x_16 >= 0
_C137: mid_x_17 >= 0
_C138: - mid_x_17 - x_17 <= -578
_C139: mid_x_17 - x_17 >= -578
_C14: x_1 <= 1322
_C140: mid_for_y_17 >= 0
_C141: mid_for_y_17 - y_17 >= -130
_C142: x_17 <= 1323
_C143: y_17 >= 130
_C144: x_17 >= 0
_C145: mid_x_18 >= 0
_C146: - mid_x_18 - x_18 <= -677
_C147: mid_x_18 - x_18 >= -677
_C148: mid_for_y_18 >= 0
_C149: mid_for_y_18 - y_18 >= -115
_C15: y_1 >= 211
_C150: x_18 <= 1311
_C151: y_18 >= 115
_C152: x_18 >= 0
_C153: mid_x_19 >= 0
_C154: - mid_x_19 - x_19 <= -815
_C155: mid_x_19 - x_19 >= -815
_C156: mid_for_y_19 >= 0
_C157: mid_for_y_19 - y_19 >= -274
_C158: x_19 <= 1330
_C159: y_19 >= 274
_C16: x_1 >= 0
_C160: x_19 >= 0
_C161: mid_x_20 >= 0
_C162: - mid_x_20 - x_20 <= -582
_C163: mid_x_20 - x_20 >= -582
_C164: mid_for_y_20 >= 0
_C165: mid_for_y_20 - y_20 >= -218
_C166: x_20 <= 1320
_C167: y_20 >= 218
_C168: x_20 >= 0
_C169: mid_x_21 >= 0
_C17: mid_x_2 >= 0
_C170: - mid_x_21 - x_21 <= -1204
_C171: mid_x_21 - x_21 >= -1204
_C172: mid_for_y_21 >= 0
_C173: mid_for_y_21 - y_21 >= -215
_C174: x_21 <= 1317
_C175: y_21 >= 215
_C176: x_21 >= 0
_C177: mid_x_22 >= 0
_C178: - mid_x_22 - x_22 <= -70
_C179: mid_x_22 - x_22 >= -70
_C18: - mid_x_2 - x_2 <= -1275
_C180: mid_for_y_22 >= 0
_C181: mid_for_y_22 - y_22 >= -35
_C182: x_22 <= 1329
_C183: y_22 >= 35
_C184: x_22 >= 0
_C185: mid_x_23 >= 0
_C186: - mid_x_23 - x_23 <= -192
_C187: mid_x_23 - x_23 >= -192
_C188: mid_for_y_23 >= 0
_C189: mid_for_y_23 - y_23 >= -207
_C19: mid_x_2 - x_2 >= -1275
_C190: x_23 <= 1324
_C191: y_23 >= 207
_C192: x_23 >= 0
_C193: mid_x_24 >= 0
_C194: - mid_x_24 - x_24 <= -1093
_C195: mid_x_24 - x_24 >= -1093
_C196: mid_for_y_24 >= 0
_C197: mid_for_y_24 - y_24 >= -261
_C198: x_24 <= 1318
_C199: y_24 >= 261
_C2: - mid_x_0 - x_0 <= -795
_C20: mid_for_y_2 >= 0
_C200: x_24 >= 0
_C201: mid_x_25 >= 0
_C202: - mid_x_25 - x_25 <= -267
_C203: mid_x_25 - x_25 >= -267
_C204: mid_for_y_25 >= 0
_C205: mid_for_y_25 - y_25 >= -48
_C206: x_25 <= 1315
_C207: y_25 >= 48
_C208: x_25 >= 0
_C209: mid_x_26 >= 0
_C21: mid_for_y_2 - y_2 >= 0
_C210: - mid_x_26 - x_26 <= -25
_C211: mid_x_26 - x_26 >= -25
_C212: mid_for_y_26 >= 0
_C213: mid_for_y_26 - y_26 >= -278
_C214: x_26 <= 1328
_C215: y_26 >= 278
_C216: x_26 >= 0
_C217: mid_x_27 >= 0
_C218: - mid_x_27 - x_27 <= -418
_C219: mid_x_27 - x_27 >= -418
_C22: x_2 <= 1327
_C220: mid_for_y_27 >= 0
_C221: mid_for_y_27 - y_27 >= -245
_C222: x_27 <= 1316
_C223: y_27 >= 245
_C224: x_27 >= 0
_C225: mid_x_28 >= 0
_C226: - mid_x_28 - x_28 <= -1251
_C227: mid_x_28 - x_28 >= -1251
_C228: mid_for_y_28 >= 0
_C229: mid_for_y_28 - y_28 >= -106
_C23: y_2 >= 0
_C230: x_28 <= 1323
_C231: y_28 >= 106
_C232: x_28 >= 0
_C233: mid_x_29 >= 0
_C234: - mid_x_29 - x_29 <= -93
_C235: mid_x_29 - x_29 >= -93
_C236: mid_for_y_29 >= 0
_C237: mid_for_y_29 - y_29 >= -204
_C238: x_29 <= 1310
_C239: y_29 >= 204
_C24: x_2 >= 0
_C240: x_29 >= 0
_C241: mid_x_30 >= 0
_C242: - mid_x_30 - x_30 <= -246
_C243: mid_x_30 - x_30 >= -246
_C244: mid_for_y_30 >= 0
_C245: mid_for_y_30 - y_30 >= -119
_C246: x_30 <= 1311
_C247: y_30 >= 119
_C248: x_30 >= 0
_C249: mid_x_31 >= 0
_C25: mid_x_3 >= 0
_C250: - mid_x_31 - x_31 <= -668
_C251: mid_x_31 - x_31 >= -668
_C252: mid_for_y_31 >= 0
_C253: mid_for_y_31 - y_31 >= -63
_C254: x_31 <= 1330
_C255: y_31 >= 63
_C256: x_31 >= 0
_C257: mid_x_32 >= 0
_C258: - mid_x_32 - x_32 <= -494
_C259: mid_x_32 - x_32 >= -494
_C26: - mid_x_3 - x_3 <= -1396
_C260: mid_for_y_32 >= 0
_C261: mid_for_y_32 - y_32 >= -137
_C262: x_32 <= 1311
_C263: y_32 >= 137
_C264: x_32 >= 0
_C265: mid_x_33 >= 0
_C266: - mid_x_33 - x_33 <= -452
_C267: mid_x_33 - x_33 >= -452
_C268: mid_for_y_33 >= 0
_C269: mid_for_y_33 - y_33 >= -31
_C27: mid_x_3 - x_3 >= -1396
_C270: x_33 <= 1327
_C271: y_33 >= 31
_C272: x_33 >= 0
_C273: mid_x_34 >= 0
_C274: - mid_x_34 - x_34 <= -368
_C275: mid_x_34 - x_34 >= -368
_C276: mid_for_y_34 >= 0
_C277: mid_for_y_34 - y_34 >= -56
_C278: x_34 <= 1326
_C279: y_34 >= 56
_C28: mid_for_y_3 >= 0
_C280: x_34 >= 0
_C281: mid_x_35 >= 0
_C282: - mid_x_35 - x_35 <= -694
_C283: mid_x_35 - x_35 >= -694
_C284: mid_for_y_35 >= 0
_C285: mid_for_y_35 - y_35 >= -197
_C286: x_35 <= 1315
_C287: y_35 >= 197
_C288: x_35 >= 0
_C289: mid_x_36 >= 0
_C29: mid_for_y_3 - y_3 >= -59
_C290: - mid_x_36 - x_36 <= -1272
_C291: mid_x_36 - x_36 >= -1272
_C292: mid_for_y_36 >= 0
_C293: mid_for_y_36 - y_36 >= -291
_C294: x_36 <= 1330
_C295: y_36 >= 291
_C296: x_36 >= 0
_C297: mid_x_37 >= 0
_C298: - mid_x_37 - x_37 <= -522
_C299: mid_x_37 - x_37 >= -522
_C3: mid_x_0 - x_0 >= -795
_C30: x_3 <= 1315
_C300: mid_for_y_37 >= 0
_C301: mid_for_y_37 - y_37 >= -152
_C302: x_37 <= 1317
_C303: y_37 >= 152
_C304: x_37 >= 0
_C305: mid_x_38 >= 0
_C306: - mid_x_38 - x_38 <= -639
_C307: mid_x_38 - x_38 >= -639
_C308: mid_for_y_38 >= 0
_C309: mid_for_y_38 - y_38 >= -26
_C31: y_3 >= 59
_C310: x_38 <= 1323
_C311: y_38 >= 26
_C312: x_38 >= 0
_C313: mid_x_39 >= 0
_C314: - mid_x_39 - x_39 <= -790
_C315: mid_x_39 - x_39 >= -790
_C316: mid_for_y_39 >= 0
_C317: mid_for_y_39 - y_39 >= -6
_C318: x_39 <= 1330
_C319: y_39 >= 6
_C32: x_3 >= 0
_C320: x_39 >= 0
_C321: mid_x_40 >= 0
_C322: - mid_x_40 - x_40 <= -1369
_C323: mid_x_40 - x_40 >= -1369
_C324: mid_for_y_40 >= 0
_C325: mid_for_y_40 - y_40 >= -212
_C326: x_40 <= 1327
_C327: y_40 >= 212
_C328: x_40 >= 0
_C329: mid_x_41 >= 0
_C33: mid_x_4 >= 0
_C330: - mid_x_41 - x_41 <= -128
_C331: mid_x_41 - x_41 >= -128
_C332: mid_for_y_41 >= 0
_C333: mid_for_y_41 - y_41 >= -45
_C334: x_41 <= 1319
_C335: y_41 >= 45
_C336: x_41 >= 0
_C337: mid_x_42 >= 0
_C338: - mid_x_42 - x_42 <= -1332
_C339: mid_x_42 - x_42 >= -1332
_C34: - mid_x_4 - x_4 <= -943
_C340: mid_for_y_42 >= 0
_C341: mid_for_y_42 - y_42 >= -53
_C342: x_42 <= 1329
_C343: y_42 >= 53
_C344: x_42 >= 0
_C345: mid_x_43 >= 0
_C346: - mid_x_43 - x_43 <= -183
_C347: mid_x_43 - x_43 >= -183
_C348: mid_for_y_43 >= 0
_C349: mid_for_y_43 - y_43 >= -28
_C35: mid_x_4 - x_4 >= -943
_C350: x_43 <= 1323
_C351: y_43 >= 28
_C352: x_43 >= 0
_C353: mid_x_44 >= 0
_C354: - mid_x_44 - x_44 <= -626
_C355: mid_x_44 - x_44 >= -626
_C356: mid_for_y_44 >= 0
_C357: mid_for_y_44 - y_44 >= -30
_C358: x_44 <= 1328
_C359: y_44 >= 30
_C36: mid_for_y_4 >= 0
_C360: x_44 >= 0
_C361: mid_x_45 >= 0
_C362: - mid_x_45 - x_45 <= -582
_C363: mid_x_45 - x_45 >= -582
_C364: mid_for_y_45 >= 0
_C365: mid_for_y_45 - y_45 >= -59
_C366: x_45 <= 1316
_C367: y_45 >= 59
_C368: x_45 >= 0
_C369: mid_x_46 >= 0
_C37: mid_for_y_4 - y_4 >= -166
_C370: - mid_x_46 - x_46 <= -1015
_C371: mid_x_46 - x_46 >= -1015
_C372: mid_for_y_46 >= 0
_C373: mid_for_y_46 - y_46 >= -4
_C374: x_46 <= 1316
_C375: y_46 >= 4
_C376: x_46 >= 0
_C377: mid_x_47 >= 0
_C378: - mid_x_47 - x_47 <= -340
_C379: mid_x_47 - x_47 >= -340
_C38: x_4 <= 1323
_C380: mid_for_y_47 >= 0
_C381: mid_for_y_47 - y_47 >= -82
_C382: x_47 <= 1319
_C383: y_47 >= 82
_C384: x_47 >= 0
_C385: mid_x_48 >= 0
_C386: - mid_x_48 - x_48 <= -783
_C387: mid_x_48 - x_48 >= -783
_C388: mid_for_y_48 >= 0
_C389: mid_for_y_48 - y_48 >= -62
_C39: y_4 >= 166
_C390: x_48 <= 1328
_C391: y_48 >= 62
_C392: x_48 >= 0
_C393: x_12 - x_2 + 100000000 z_x_(12,_2) <= 99999915
_C394: - x_12 + x_2 + 100000000 z_x_(2,_12) <= 99999927
_C395: y_12 - y_2 + 100000000 z_y_(12,_2) <= 99999973
_C396: - y_12 + y_2 + 100000000 z_y_(2,_12) <= 99999974
_C397: z_x_(12,_2) + z_x_(2,_12) + z_y_(12,_2) + z_y_(2,_12) >= 1
_C398: - x_16 + x_17 + 100000000 z_x_(17,_16) <= 99999923
_C399: x_16 - x_17 + 100000000 z_x_(16,_17) <= 99999920
_C4: mid_for_y_0 >= 0
_C40: x_4 >= 0
_C400: - y_16 + y_17 + 100000000 z_y_(17,_16) <= 99999971
_C401: y_16 - y_17 + 100000000 z_y_(16,_17) <= 99999969
_C402: z_x_(16,_17) + z_x_(17,_16) + z_y_(16,_17) + z_y_(17,_16) >= 1
_C403: - x_16 + x_18 + 100000000 z_x_(18,_16) <= 99999911
_C404: x_16 - x_18 + 100000000 z_x_(16,_18) <= 99999920
_C405: - y_16 + y_18 + 100000000 z_y_(18,_16) <= 99999971
_C406: y_16 - y_18 + 100000000 z_y_(16,_18) <= 99999969
_C407: z_x_(16,_18) + z_x_(18,_16) + z_y_(16,_18) + z_y_(18,_16) >= 1
_C408: x_19 - x_7 + 100000000 z_x_(19,_7) <= 99999930
_C409: - x_19 + x_7 + 100000000 z_x_(7,_19) <= 99999914
_C41: mid_x_5 >= 0
_C410: y_19 - y_7 + 100000000 z_y_(19,_7) <= 99999972
_C411: - y_19 + y_7 + 100000000 z_y_(7,_19) <= 99999972
_C412: z_x_(19,_7) + z_x_(7,_19) + z_y_(19,_7) + z_y_(7,_19) >= 1
_C413: x_23 - x_5 + 100000000 z_x_(23,_5) <= 99999924
_C414: - x_23 + x_5 + 100000000 z_x_(5,_23) <= 99999927
_C415: y_23 - y_5 + 100000000 z_y_(23,_5) <= 99999967
_C416: - y_23 + y_5 + 100000000 z_y_(5,_23) <= 99999968
_C417: z_x_(23,_5) + z_x_(5,_23) + z_y_(23,_5) + z_y_(5,_23) >= 1
_C418: x_25 - x_8 + 100000000 z_x_(25,_8) <= 99999915
_C419: - x_25 + x_8 + 100000000 z_x_(8,_25) <= 99999912
_C42: - mid_x_5 - x_5 <= -162
_C420: y_25 - y_8 + 100000000 z_y_(25,_8) <= 99999966
_C421: - y_25 + y_8 + 100000000 z_y_(8,_25) <= 99999968
_C422: z_x_(25,_8) + z_x_(8,_25) + z_y_(25,_8) + z_y_(8,_25) >= 1
_C423: x_29 - x_5 + 100000000 z_x_(29,_5) <= 99999910
_C424: - x_29 + x_5 + 100000000 z_x_(5,_29) <= 99999927
_C425: y_29 - y_5 + 100000000 z_y_(29,_5) <= 99999971
_C426: - y_29 + y_5 + 100000000 z_y_(5,_29) <= 99999968
_C427: z_x_(29,_5) + z_x_(5,_29) + z_y_(29,_5) + z_y_(5,_29) >= 1
_C428: - x_15 + x_31 + 100000000 z_x_(31,_15) <= 99999930
_C429: x_15 - x_31 + 100000000 z_x_(15,_31) <= 99999930
_C43: mid_x_5 - x_5 >= -162
_C430: - y_15 + y_31 + 100000000 z_y_(31,_15) <= 99999975
_C431: y_15 - y_31 + 100000000 z_y_(15,_31) <= 99999971
_C432: z_x_(15,_31) + z_x_(31,_15) + z_y_(15,_31) + z_y_(31,_15) >= 1
_C433: - x_17 + x_32 + 100000000 z_x_(32,_17) <= 99999911
_C434: x_17 - x_32 + 100000000 z_x_(17,_32) <= 99999923
_C435: - y_17 + y_32 + 100000000 z_y_(32,_17) <= 99999967
_C436: y_17 - y_32 + 100000000 z_y_(17,_32) <= 99999971
_C437: z_x_(17,_32) + z_x_(32,_17) + z_y_(17,_32) + z_y_(32,_17) >= 1
_C438: x_34 - x_8 + 100000000 z_x_(34,_8) <= 99999926
_C439: - x_34 + x_8 + 100000000 z_x_(8,_34) <= 99999912
_C44: mid_for_y_5 >= 0
_C440: y_34 - y_8 + 100000000 z_y_(34,_8) <= 99999974
_C441: - y_34 + y_8 + 100000000 z_y_(8,_34) <= 99999968
_C442: z_x_(34,_8) + z_x_(8,_34) + z_y_(34,_8) + z_y_(8,_34) >= 1
_C443: - x_11 + x_36 + 100000000 z_x_(36,_11) <= 99999930
_C444: x_11 - x_36 + 100000000 z_x_(11,_36) <= 99999922
_C445: - y_11 + y_36 + 100000000 z_y_(36,_11) <= 99999968
_C446: y_11 - y_36 + 100000000 z_y_(11,_36) <= 99999966
_C447: z_x_(11,_36) + z_x_(36,_11) + z_y_(11,_36) + z_y_(36,_11) >= 1
_C448: - x_17 + x_37 + 100000000 z_x_(37,_17) <= 99999917
_C449: x_17 - x_37 + 100000000 z_x_(17,_37) <= 99999923
_C45: mid_for_y_5 - y_5 >= -210
_C450: - y_17 + y_37 + 100000000 z_y_(37,_17) <= 99999971
_C451: y_17 - y_37 + 100000000 z_y_(17,_37) <= 99999971
_C452: z_x_(17,_37) + z_x_(37,_17) + z_y_(17,_37) + z_y_(37,_17) >= 1
_C453: - x_32 + x_37 + 100000000 z_x_(37,_32) <= 99999917
_C454: x_32 - x_37 + 100000000 z_x_(32,_37) <= 99999911
_C455: - y_32 + y_37 + 100000000 z_y_(37,_32) <= 99999971
_C456: y_32 - y_37 + 100000000 z_y_(32,_37) <= 99999967
_C457: z_x_(32,_37) + z_x_(37,_32) + z_y_(32,_37) + z_y_(37,_32) >= 1
_C458: - x_13 + x_39 + 100000000 z_x_(39,_13) <= 99999930
_C459: x_13 - x_39 + 100000000 z_x_(13,_39) <= 99999920
_C46: x_5 <= 1327
_C460: - y_13 + y_39 + 100000000 z_y_(39,_13) <= 99999972
_C461: y_13 - y_39 + 100000000 z_y_(13,_39) <= 99999975
_C462: z_x_(13,_39) + z_x_(39,_13) + z_y_(13,_39) + z_y_(39,_13) >= 1
_C463: - x_22 + x_41 + 100000000 z_x_(41,_22) <= 99999919
_C464: x_22 - x_41 + 100000000 z_x_(22,_41) <= 99999929
_C465: - y_22 + y_41 + 100000000 z_y_(41,_22) <= 99999971
_C466: y_22 - y_41 + 100000000 z_y_(22,_41) <= 99999968
_C467: z_x_(22,_41) + z_x_(41,_22) + z_y_(22,_41) + z_y_(41,_22) >= 1
_C468: - x_3 + x_42 + 100000000 z_x_(42,_3) <= 99999929
_C469: x_3 - x_42 + 100000000 z_x_(3,_42) <= 99999915
_C47: y_5 >= 210
_C470: - y_3 + y_42 + 100000000 z_y_(42,_3) <= 99999968
_C471: y_3 - y_42 + 100000000 z_y_(3,_42) <= 99999972
_C472: z_x_(3,_42) + z_x_(42,_3) + z_y_(3,_42) + z_y_(42,_3) >= 1
_C473: - x_41 + x_43 + 100000000 z_x_(43,_41) <= 99999923
_C474: x_41 - x_43 + 100000000 z_x_(41,_43) <= 99999919
_C475: - y_41 + y_43 + 100000000 z_y_(43,_41) <= 99999965
_C476: y_41 - y_43 + 100000000 z_y_(41,_43) <= 99999971
_C477: z_x_(41,_43) + z_x_(43,_41) + z_y_(41,_43) + z_y_(43,_41) >= 1
_C478: - x_38 + x_44 + 100000000 z_x_(44,_38) <= 99999928
_C479: x_38 - x_44 + 100000000 z_x_(38,_44) <= 99999923
_C48: x_5 >= 0
_C480: - y_38 + y_44 + 100000000 z_y_(44,_38) <= 99999969
_C481: y_38 - y_44 + 100000000 z_y_(38,_44) <= 99999975
_C482: z_x_(38,_44) + z_x_(44,_38) + z_y_(38,_44) + z_y_(44,_38) >= 1
_C483: - x_44 + x_45 + 100000000 z_x_(45,_44) <= 99999916
_C484: x_44 - x_45 + 100000000 z_x_(44,_45) <= 99999928
_C485: - y_44 + y_45 + 100000000 z_y_(45,_44) <= 99999966
_C486: y_44 - y_45 + 100000000 z_y_(44,_45) <= 99999969
_C487: z_x_(44,_45) + z_x_(45,_44) + z_y_(44,_45) + z_y_(45,_44) >= 1
_C488: x_47 - x_8 + 100000000 z_x_(47,_8) <= 99999919
_C489: - x_47 + x_8 + 100000000 z_x_(8,_47) <= 99999912
_C49: mid_x_6 >= 0
_C490: y_47 - y_8 + 100000000 z_y_(47,_8) <= 99999971
_C491: - y_47 + y_8 + 100000000 z_y_(8,_47) <= 99999968
_C492: z_x_(47,_8) + z_x_(8,_47) + z_y_(47,_8) + z_y_(8,_47) >= 1
_C493: - x_0 + x_48 + 100000000 z_x_(48,_0) <= 99999928
_C494: x_0 - x_48 + 100000000 z_x_(0,_48) <= 99999914
_C495: - y_0 + y_48 + 100000000 z_y_(48,_0) <= 99999968
_C496: y_0 - y_48 + 100000000 z_y_(0,_48) <= 99999967
_C497: z_x_(0,_48) + z_x_(48,_0) + z_y_(0,_48) + z_y_(48,_0) >= 1
_C498: - x_5 + x_9 + 100000000 z_x_(9,_5) <= 99999926
_C499: x_5 - x_9 + 100000000 z_x_(5,_9) <= 99999927
_C5: mid_for_y_0 - y_0 >= -85
_C50: - mid_x_6 - x_6 <= -701
_C500: - y_5 + y_9 + 100000000 z_y_(9,_5) <= 99999975
_C501: y_5 - y_9 + 100000000 z_y_(5,_9) <= 99999968
_C502: z_x_(5,_9) + z_x_(9,_5) + z_y_(5,_9) + z_y_(9,_5) >= 1
_C503: - x_15 + x_18 + 100000000 z_x_(18,_15) <= 99999911
_C504: x_15 - x_18 + 100000000 z_x_(15,_18) <= 99999930
_C505: - y_15 + y_18 + 100000000 z_y_(18,_15) <= 99999971
_C506: y_15 - y_18 + 100000000 z_y_(15,_18) <= 99999971
_C507: z_x_(15,_18) + z_x_(18,_15) + z_y_(15,_18) + z_y_(18,_15) >= 1
_C508: x_28 - x_3 + 100000000 z_x_(28,_3) <= 99999923
_C509: - x_28 + x_3 + 100000000 z_x_(3,_28) <= 99999915
_C51: mid_x_6 - x_6 >= -701
_C510: y_28 - y_3 + 100000000 z_y_(28,_3) <= 99999965
_C511: - y_28 + y_3 + 100000000 z_y_(3,_28) <= 99999972
_C512: z_x_(28,_3) + z_x_(3,_28) + z_y_(28,_3) + z_y_(3,_28) >= 1
_C513: x_30 - x_8 + 100000000 z_x_(30,_8) <= 99999911
_C514: - x_30 + x_8 + 100000000 z_x_(8,_30) <= 99999912
_C515: y_30 - y_8 + 100000000 z_y_(30,_8) <= 99999969
_C516: - y_30 + y_8 + 100000000 z_y_(8,_30) <= 99999968
_C517: z_x_(30,_8) + z_x_(8,_30) + z_y_(30,_8) + z_y_(8,_30) >= 1
_C518: - x_31 + x_38 + 100000000 z_x_(38,_31) <= 99999923
_C519: x_31 - x_38 + 100000000 z_x_(31,_38) <= 99999930
_C52: mid_for_y_6 >= 0
_C520: - y_31 + y_38 + 100000000 z_y_(38,_31) <= 99999975
_C521: y_31 - y_38 + 100000000 z_y_(31,_38) <= 99999975
_C522: z_x_(31,_38) + z_x_(38,_31) + z_y_(31,_38) + z_y_(38,_31) >= 1
_C523: - x_38 + x_45 + 100000000 z_x_(45,_38) <= 99999916
_C524: x_38 - x_45 + 100000000 z_x_(38,_45) <= 99999923
_C525: - y_38 + y_45 + 100000000 z_y_(45,_38) <= 99999966
_C526: y_38 - y_45 + 100000000 z_y_(38,_45) <= 99999975
_C527: z_x_(38,_45) + z_x_(45,_38) + z_y_(38,_45) + z_y_(45,_38) >= 1
_C528: - x_31 + x_44 + 100000000 z_x_(44,_31) <= 99999928
_C529: x_31 - x_44 + 100000000 z_x_(31,_44) <= 99999930
_C53: mid_for_y_6 - y_6 >= -238
_C530: - y_31 + y_44 + 100000000 z_y_(44,_31) <= 99999969
_C531: y_31 - y_44 + 100000000 z_y_(31,_44) <= 99999975
_C532: z_x_(31,_44) + z_x_(44,_31) + z_y_(31,_44) + z_y_(44,_31) >= 1
_C533: - x_15 + x_44 + 100000000 z_x_(44,_15) <= 99999928
_C534: x_15 - x_44 + 100000000 z_x_(15,_44) <= 99999930
_C535: - y_15 + y_44 + 100000000 z_y_(44,_15) <= 99999969
_C536: y_15 - y_44 + 100000000 z_y_(15,_44) <= 99999971
_C537: z_x_(15,_44) + z_x_(44,_15) + z_y_(15,_44) + z_y_(44,_15) >= 1
_C538: - x_18 + x_44 + 100000000 z_x_(44,_18) <= 99999928
_C539: x_18 - x_44 + 100000000 z_x_(18,_44) <= 99999911
_C54: x_6 <= 1318
_C540: - y_18 + y_44 + 100000000 z_y_(44,_18) <= 99999969
_C541: y_18 - y_44 + 100000000 z_y_(18,_44) <= 99999971
_C542: z_x_(18,_44) + z_x_(44,_18) + z_y_(18,_44) + z_y_(44,_18) >= 1
_C55: y_6 >= 238
_C56: x_6 >= 0
_C57: mid_x_7 >= 0
_C58: - mid_x_7 - x_7 <= -795
_C59: mid_x_7 - x_7 >= -795
_C6: x_0 <= 1314
_C60: mid_for_y_7 >= 0
_C61: mid_for_y_7 - y_7 >= -260
_C62: x_7 <= 1314
_C63: y_7 >= 260
_C64: x_7 >= 0
_C65: mid_x_8 >= 0
_C66: - mid_x_8 - x_8 <= -292
_C67: mid_x_8 - x_8 >= -292
_C68: mid_for_y_8 >= 0
_C69: mid_for_y_8 - y_8 >= -56
_C7: y_0 >= 85
_C70: x_8 <= 1312
_C71: y_8 >= 56
_C72: x_8 >= 0
_C73: mid_x_9 >= 0
_C74: - mid_x_9 - x_9 <= -181
_C75: mid_x_9 - x_9 >= -181
_C76: mid_for_y_9 >= 0
_C77: mid_for_y_9 - y_9 >= -252
_C78: x_9 <= 1326
_C79: y_9 >= 252
_C8: x_0 >= 0
_C80: x_9 >= 0
_C81: mid_x_10 >= 0
_C82: - mid_x_10 - x_10 <= -1238
_C83: mid_x_10 - x_10 >= -1238
_C84: mid_for_y_10 >= 0
_C85: mid_for_y_10 - y_10 >= -176
_C86: x_10 <= 1320
_C87: y_10 >= 176
_C88: x_10 >= 0
_C89: mid_x_11 >= 0
_C9: mid_x_1 >= 0
_C90: - mid_x_11 - x_11 <= -1345
_C91: mid_x_11 - x_11 >= -1345
_C92: mid_for_y_11 >= 0
_C93: mid_for_y_11 - y_11 >= -284
_C94: x_11 <= 1322
_C95: y_11 >= 284
_C96: x_11 >= 0
_C97: mid_x_12 >= 0
_C98: - mid_x_12 - x_12 <= -1323
_C99: mid_x_12 - x_12 >= -1323
Binaries
z_x_(0,_48)
z_x_(11,_36)
z_x_(12,_2)
z_x_(13,_39)
z_x_(15,_18)
z_x_(15,_31)
z_x_(15,_44)
z_x_(16,_17)
z_x_(16,_18)
z_x_(17,_16)
z_x_(17,_32)
z_x_(17,_37)
z_x_(18,_15)
z_x_(18,_16)
z_x_(18,_44)
z_x_(19,_7)
z_x_(2,_12)
z_x_(22,_41)
z_x_(23,_5)
z_x_(25,_8)
z_x_(28,_3)
z_x_(29,_5)
z_x_(3,_28)
z_x_(3,_42)
z_x_(30,_8)
z_x_(31,_15)
z_x_(31,_38)
z_x_(31,_44)
z_x_(32,_17)
z_x_(32,_37)
z_x_(34,_8)
z_x_(36,_11)
z_x_(37,_17)
z_x_(37,_32)
z_x_(38,_31)
z_x_(38,_44)
z_x_(38,_45)
z_x_(39,_13)
z_x_(41,_22)
z_x_(41,_43)
z_x_(42,_3)
z_x_(43,_41)
z_x_(44,_15)
z_x_(44,_18)
z_x_(44,_31)
z_x_(44,_38)
z_x_(44,_45)
z_x_(45,_38)
z_x_(45,_44)
z_x_(47,_8)
z_x_(48,_0)
z_x_(5,_23)
z_x_(5,_29)
z_x_(5,_9)
z_x_(7,_19)
z_x_(8,_25)
z_x_(8,_30)
z_x_(8,_34)
z_x_(8,_47)
z_x_(9,_5)
z_y_(0,_48)
z_y_(11,_36)
z_y_(12,_2)
z_y_(13,_39)
z_y_(15,_18)
z_y_(15,_31)
z_y_(15,_44)
z_y_(16,_17)
z_y_(16,_18)
z_y_(17,_16)
z_y_(17,_32)
z_y_(17,_37)
z_y_(18,_15)
z_y_(18,_16)
z_y_(18,_44)
z_y_(19,_7)
z_y_(2,_12)
z_y_(22,_41)
z_y_(23,_5)
z_y_(25,_8)
z_y_(28,_3)
z_y_(29,_5)
z_y_(3,_28)
z_y_(3,_42)
z_y_(30,_8)
z_y_(31,_15)
z_y_(31,_38)
z_y_(31,_44)
z_y_(32,_17)
z_y_(32,_37)
z_y_(34,_8)
z_y_(36,_11)
z_y_(37,_17)
z_y_(37,_32)
z_y_(38,_31)
z_y_(38,_44)
z_y_(38,_45)
z_y_(39,_13)
z_y_(41,_22)
z_y_(41,_43)
z_y_(42,_3)
z_y_(43,_41)
z_y_(44,_15)
z_y_(44,_18)
z_y_(44,_31)
z_y_(44,_38)
z_y_(44,_45)
z_y_(45,_38)
z_y_(45,_44)
z_y_(47,_8)
z_y_(48,_0)
z_y_(5,_23)
z_y_(5,_29)
z_y_(5,_9)
z_y_(7,_19)
z_y_(8,_25)
z_y_(8,_30)
z_y_(8,_34)
z_y_(8,_47)
z_y_(9,_5)
End
